IndustryOR/id60/tsp_mtz_7nodes.lp
\Generated by Cardinal Operations

Minimize
   86 x(1,2) + 49 x(1,3) + 57 x(1,4) + 31 x(1,5) + 69 x(1,6) + 50 x(1,7) 
   + 86 x(2,1) + 68 x(2,3) + 79 x(2,4) + 93 x(2,5) + 24 x(2,6) + 5 x(2,7) 
   + 49 x(3,1) + 68 x(3,2) + 16 x(3,4) + 7 x(3,5) + 72 x(3,6) + 67 x(3,7) 
   + 57 x(4,1) + 79 x(4,2) + 16 x(4,3) + 90 x(4,5) + 69 x(4,6) + x(4,7) 
   + 31 x(5,1) + 93 x(5,2) + 7 x(5,3) + 90 x(5,4) + 86 x(5,6) + 59 x(5,7) 
   + 69 x(6,1) + 24 x(6,2) + 72 x(6,3) + 69 x(6,4) + 86 x(6,5) + 81 x(6,7) 
   + 50 x(7,1) + 5 x(7,2) + 67 x(7,3) + x(7,4) + 59 x(7,5) + 81 x(7,6) 
Subject To
 depart_1: x(1,2) + x(1,3) + x(1,4) + x(1,5) + x(1,6) + x(1,7) = 1
 depart_2: x(2,1) + x(2,3) + x(2,4) + x(2,5) + x(2,6) + x(2,7) = 1
 depart_3: x(3,1) + x(3,2) + x(3,4) + x(3,5) + x(3,6) + x(3,7) = 1
 depart_4: x(4,1) + x(4,2) + x(4,3) + x(4,5) + x(4,6) + x(4,7) = 1
 depart_5: x(5,1) + x(5,2) + x(5,3) + x(5,4) + x(5,6) + x(5,7) = 1
 depart_6: x(6,1) + x(6,2) + x(6,3) + x(6,4) + x(6,5) + x(6,7) = 1
 depart_7: x(7,1) + x(7,2) + x(7,3) + x(7,4) + x(7,5) + x(7,6) = 1
 arrive_1: x(2,1) + x(3,1) + x(4,1) + x(5,1) + x(6,1) + x(7,1) = 1
 arrive_2: x(1,2) + x(3,2) + x(4,2) + x(5,2) + x(6,2) + x(7,2) = 1
 arrive_3: x(1,3) + x(2,3) + x(4,3) + x(5,3) + x(6,3) + x(7,3) = 1
 arrive_4: x(1,4) + x(2,4) + x(3,4) + x(5,4) + x(6,4) + x(7,4) = 1
 arrive_5: x(1,5) + x(2,5) + x(3,5) + x(4,5) + x(6,5) + x(7,5) = 1
 arrive_6: x(1,6) + x(2,6) + x(3,6) + x(4,6) + x(5,6) + x(7,6) = 1
 arrive_7: x(1,7) + x(2,7) + x(3,7) + x(4,7) + x(5,7) + x(6,7) = 1
 mtz_2_3: u(2) - u(3) + 7 x(2,3) <= 6
 mtz_2_4: u(2) - u(4) + 7 x(2,4) <= 6
 mtz_2_5: u(2) - u(5) + 7 x(2,5) <= 6
 mtz_2_6: u(2) - u(6) + 7 x(2,6) <= 6
 mtz_2_7: u(2) - u(7) + 7 x(2,7) <= 6
 mtz_3_2: u(3) - u(2) + 7 x(3,2) <= 6
 mtz_3_4: u(3) - u(4) + 7 x(3,4) <= 6
 mtz_3_5: u(3) - u(5) + 7 x(3,5) <= 6
 mtz_3_6: u(3) - u(6) + 7 x(3,6) <= 6
 mtz_3_7: u(3) - u(7) + 7 x(3,7) <= 6
 mtz_4_2: u(4) - u(2) + 7 x(4,2) <= 6
 mtz_4_3: u(4) - u(3) + 7 x(4,3) <= 6
 mtz_4_5: u(4) - u(5) + 7 x(4,5) <= 6
 mtz_4_6: u(4) - u(6) + 7 x(4,6) <= 6
 mtz_4_7: u(4) - u(7) + 7 x(4,7) <= 6
 mtz_5_2: u(5) - u(2) + 7 x(5,2) <= 6
 mtz_5_3: u(5) - u(3) + 7 x(5,3) <= 6
 mtz_5_4: u(5) - u(4) + 7 x(5,4) <= 6
 mtz_5_6: u(5) - u(6) + 7 x(5,6) <= 6
 mtz_5_7: u(5) - u(7) + 7 x(5,7) <= 6
 mtz_6_2: u(6) - u(2) + 7 x(6,2) <= 6
 mtz_6_3: u(6) - u(3) + 7 x(6,3) <= 6
 mtz_6_4: u(6) - u(4) + 7 x(6,4) <= 6
 mtz_6_5: u(6) - u(5) + 7 x(6,5) <= 6
 mtz_6_7: u(6) - u(7) + 7 x(6,7) <= 6
 mtz_7_2: u(7) - u(2) + 7 x(7,2) <= 6
 mtz_7_3: u(7) - u(3) + 7 x(7,3) <= 6
 mtz_7_4: u(7) - u(4) + 7 x(7,4) <= 6
 mtz_7_5: u(7) - u(5) + 7 x(7,5) <= 6
 mtz_7_6: u(7) - u(6) + 7 x(7,6) <= 6
Bounds
 2 <= u(2) <= 7
 2 <= u(3) <= 7
 2 <= u(4) <= 7
 2 <= u(5) <= 7
 2 <= u(6) <= 7
 2 <= u(7) <= 7
Binaries
 x(1,2)  x(1,3)  x(1,4)  x(1,5)  x(1,6)  x(1,7)  x(2,1)  x(2,3)  x(2,4)  
 x(2,5)  x(2,6)  x(2,7)  x(3,1)  x(3,2)  x(3,4)  x(3,5)  x(3,6)  x(3,7)  
 x(4,1)  x(4,2)  x(4,3)  x(4,5)  x(4,6)  x(4,7)  x(5,1)  x(5,2)  x(5,3)  
 x(5,4)  x(5,6)  x(5,7)  x(6,1)  x(6,2)  x(6,3)  x(6,4)  x(6,5)  x(6,7)  
 x(7,1)  x(7,2)  x(7,3)  x(7,4)  x(7,5)  x(7,6)  
END

