IndustryOR/id60/tsp_mtz_7nodes.sol
# Objective value 153
x(1,2)    0
x(1,3)    0
x(1,4)    0
x(1,5)    1
x(1,6)    0
x(1,7)    0
x(2,1)    0
x(2,3)    0
x(2,4)    0
x(2,5)    0
x(2,6)    1
x(2,7)    0
x(3,1)    0
x(3,2)    0
x(3,4)    1
x(3,5)    0
x(3,6)    0
x(3,7)    0
x(4,1)    0
x(4,2)    0
x(4,3)    0
x(4,5)    0
x(4,6)    0
x(4,7)    1
x(5,1)    0
x(5,2)    0
x(5,3)    1
x(5,4)    0
x(5,6)    0
x(5,7)    0
x(6,1)    1
x(6,2)    0
x(6,3)    0
x(6,4)    0
x(6,5)    0
x(6,7)    0
x(7,1)    0
x(7,2)    1
x(7,3)    0
x(7,4)    0
x(7,5)    0
x(7,6)    0
u(2)      6
u(3)      3
u(4)      4
u(5)      2
u(6)      7
u(7)      5
